problems/csplib-prob015/SchursLemma-models/noch/O2/lingeling/model_1_2-4-17-solution000001.eprime-solution
language ESSENCE' 1.0

letting boxes_PartitionAsSet_ExplicitR6_ExplicitVarSizeWithDummy be
        [[1, 3, 6, 8, 12, 18, 18, 18, 18, 18, 18, 18, 18, 18, 18, 18, 18; int(1..17)],
         [2, 10, 14, 15, 18, 18, 18, 18, 18, 18, 18, 18, 18, 18, 18, 18, 18; int(1..17)],
         [4, 9, 16, 18, 18, 18, 18, 18, 18, 18, 18, 18, 18, 18, 18, 18, 18; int(1..17)],
         [5, 7, 11, 13, 17, 18, 18, 18, 18, 18, 18, 18, 18, 18, 18, 18, 18; int(1..17)]; int(1..4)]
