problems/csplib-prob015/SchursLemma-models/noch/O2/lingeling/model_1_2-4-17-solution000001.solution
language Essence 1.3

letting boxes be partition({1, 3, 6, 8, 12}, {2, 10, 14, 15}, {4, 9, 16}, {5, 7, 11, 13, 17})
